n_res = 2;
rcap = [25, 20];
rtype = [1, 1];
n_tasks = 18;
modes = [ {1, 2, 3}, {4, 5, 6}, {7, 8, 9}, {10, 11, 12}, {13, 14, 15}, {16, 17, 18}, {19, 20, 21}, {22, 23, 24}, {25, 26, 27}, {28, 29, 30}, {31, 32, 33}, {34, 35, 36}, {37, 38, 39}, {40, 41, 42}, {43, 44, 45}, {46, 47, 48}, {49, 50, 51}, {52, 53, 54} ];
succ = [ {6, 14}, {4, 5, 17}, {6, 7, 12}, {10}, {14, 15}, {8, 18}, {9, 11, 13}, {11, 17}, {15, 17}, {11, 13, 14}, {16}, {13}, {15}, {16, 18}, {16, 18}, {}, {}, {} ];
n_opt = 54;
dur = [1, 2, 4, 2, 3, 9, 4, 7, 10, 1, 4, 10, 1, 1, 9, 1, 2, 7, 8, 9, 9, 1, 6, 10, 1, 9, 10, 3, 4, 6, 5, 8, 10, 1, 4, 8, 2, 6, 8, 5, 5, 8, 1, 2, 7, 6, 10, 10, 6, 7, 8, 1, 2, 6];
rreq = [|  8,  8,  7, 10,  5,  5,  7,  5,  3, 10,  5,  2,  8, 10,  8,  6,  5,  5,  7,  4,  7,  8,  8,  8,  9,  7,  4,  9,  8,  7,  7,  7,  7,  8,  8,  7,  8,  7,  6,  7,  6,  3,  3,  3,  2, 10,  4,  5,  3,  2,  1,  8,  4,  3
        |  2,  1,  1,  9,  5,  3,  8,  6,  5,  7,  7,  6,  9,  6,  2,  5,  4,  2,  5,  4,  2,  9,  6,  4,  6,  4,  3,  4,  4,  4,  9,  8,  7,  9,  7,  6,  2,  2,  2,  9, 10,  8, 10,  9,  8,  4,  4,  2,  5,  3,  1,  6,  5,  5 |];
